unsat
( _c0
  _c1009
  _c1010
  _c1011
  _c1012
  _c1013
  _c1014
  _c1015
  _c1016
  _c1017
  _c1018
  _c1019
  _c1020
  _c1023
  _c1024
  _c1025
  _c1026
  _c1027
  _c1028
  _c1029
  _c1030
  _c1031
  _c1032
  _c1033
  _c1034
  _c1035
  _c1036
  _c1038
  _c1039
  _c1040
  _c1041
  _c1042
  _c1043
  _c1044
  _c1045
  _c1046
  _c1047
  _c1048
  _c1049
  _c1050
  _c1051
  _c1052
  _c1053
  _c1054
  _c1055
  _c1056
  _c1057
  _c1058
  _c1059
  _c1060
  _c1061
  _c1062
  _c1063
  _c1064
  _c1065
  _c1067
  _c1068
  _c1069
  _c1070
  _c1071
  _c1072
  _c1073
  _c1074
  _c1075
  _c1076
  _c1077
  _c1078
  _c1079
  _c1080
  _c1081
  _c1082
  _c1083
  _c1084
  _c1085
  _c1086
  _c1087
  _c1088
  _c1089
  _c1091
  _c1092
  _c1093
  _c1094
  _c1095
  _c1096
  _c1097
  _c1098
  _c1099
  _c1100
  _c1101
  _c1102
  _c1103
  _c1104
  _c1105
  _c1106
  _c1107
  _c1108
  _c1109
  _c1110
  _c1111
  _c1112
  _c1114
  _c1115
  _c1116
  _c1117
  _c1118
  _c1119
  _c1120
  _c1121
  _c1129
  _c1130
  _c1131
  _c1132
  _c1133
  _c1134
  _c1136
  _c1137
  _c1138
  _c1140
  _c1142
  _c1143
  _c1144
  _c1145
  _c1146
  _c1148
  _c1149
  _c1150
  _c1151
  _c1152
  _c1154
  _c1155
  _c1156
  _c1157
  _c1158
  _c1160
  _c1161
  _c1162
  _c1163
  _c1164
  _c1166
  _c1167
  _c1168
  _c1169
  _c1170
  _c1185
  _c1186
  _c1187
  _c1188
  _c1189
  _c1192
  _c1193
  _c1194
  _c1195
  _c1198
  _c1199
  _c1200
  _c1201
  _c1204
  _c1205
  _c1206
  _c1207
  _c1208
  _c1209
  _c1210
  _c1211
  _c1212
  _c1213
  _c1216
  _c1217
  _c1218
  _c1219
  _c1241
  _c1242
  _c1243
  _c1244
  _c1248
  _c1249
  _c1250
  _c1254
  _c1255
  _c1256
  _c1260
  _c1261
  _c1262
  _c1266
  _c1267
  _c1268
  _c1273
  _c1297
  _c1298
  _c1299
  _c1304
  _c1305
  _c1310
  _c1311
  _c1316
  _c1317
  _c1353
  _c1354
  _c1360
  _c1366
  _c1409
  _c2083
  _c2084
  _c2085
  _c2086
  _c2087
  _c2088
  _c2089
  _c2090
  _c2164
  _c2165
  _c2168
  _c2169
  _c2171
  _c2173
  _c2174
  _c2175
  _c2176
  _c2178
  _c2179
  _c2180
  _c2182
  _c2183
  _c2184
  _c2185
  _c2186
  _c2187
  _c2188
  _c2189
  _c2191
  _c2192
  _c2193
  _c2194
  _c2195
  _c2196
  _c2197
  _c2198
  _c2200
  _c2201
  _c2202
  _c2203
  _c2204
  _c2205
  _c2206
  _c2207
  _c2209
  _c2210
  _c2211
  _c2212
  _c2213
  _c2214
  _c2215
  _c2216
  _c2218
  _c2219
  _c2220
  _c2223
  _c2224
  _c2811
  _c3340
  _c3341
  _c3342
  _c3343
  _c3344
  _c3345
  _c3346
  _c3347
  _c3348
  _c3349
  _c3352
  _c3353
  _c3354
  _c3356
  _c3357
  _c3358
  _c3359
  _c3366
  _c3368
  _c3372
  _c3373
  _c3381
  _c3401
  _c3402
  _c3413
  _c3414
  _c3415
  _c3416
  _c3417
  _c3418
  _c3419
  _c3420
  _c3422
  _c3423
  _c3424
  _c3425
  _c3426
  _c3427
  _c3428
  _c3429
  _c3431
  _c3432
  _c3433
  _c3434
  _c3435
  _c3436
  _c3437
  _c3438
  _c3440
  _c3441
  _c3442
  _c3443
  _c3444
  _c3445
  _c3447
  _c3449
  _c3450
  _c3451
  _c3452
  _c3453
  _c3454
  _c3455
  _c3456
  _c3458
  _c3459
  _c3460
  _c3461
  _c3462
  _c3463
  _c3464
  _c3465
  _c3467
  _c3468
  _c3469
  _c3470
  _c3471
  _c3472
  _c3473
  _c3474
  _c3477
  _c3478
  _c3479
  _c3480
  _c3481
  _c3482
  _c3483
  _c3484
  _c3485
  _c3486
  _c3487
  _c3488
  _c3489
  _c3490
  _c3491
  _c3492
  _c3493
  _c3495
  _c3496
  _c3497
  _c3498
  _c3499
  _c3500
  _c3501
  _c3502
  _c3504
  _c3505
  _c3506
  _c3507
  _c3508
  _c3509
  _c3510
  _c3511
  _c3513
  _c3514
  _c3515
  _c3516
  _c3517
  _c3518
  _c3519
  _c3520
  _c3522
  _c3523
  _c3524
  _c3525
  _c3526
  _c3527
  _c3528
  _c3529
  _c3531
  _c3532
  _c3533
  _c3534
  _c3535
  _c3536
  _c3537
  _c3538
  _c3541
  _c3542
  _c3543
  _c3544
  _c3545
  _c3546
  _c3547
  _c3548
  _c3550
  _c3551
  _c3552
  _c3553
  _c3554
  _c3555
  _c3556
  _c3557
  _c3559
  _c3560
  _c3561
  _c3562
  _c3563
  _c3564
  _c3565
  _c3566
  _c3568
  _c3569
  _c3570
  _c3571
  _c3572
  _c3573
  _c3574
  _c3575
  _c3577
  _c3578
  _c3579
  _c3580
  _c3581
  _c3582
  _c3583
  _c3584
  _c3586
  _c3587
  _c3588
  _c3589
  _c3590
  _c3591
  _c3592
  _c3593
  _c3595
  _c3596
  _c3597
  _c3598
  _c3599
  _c3600
  _c3601
  _c3602
  _c3605
  _c3606
  _c3607
  _c3608
  _c3609
  _c3610
  _c3611
  _c3612
  _c3614
  _c3615
  _c3616
  _c3617
  _c3618
  _c3619
  _c3620
  _c3621
  _c3623
  _c3624
  _c3625
  _c3626
  _c3627
  _c3628
  _c3629
  _c3630
  _c3632
  _c3633
  _c3634
  _c3635
  _c3636
  _c3637
  _c3638
  _c3639
  _c3641
  _c3642
  _c3643
  _c3644
  _c3645
  _c3646
  _c3647
  _c3648
  _c3650
  _c3651
  _c3652
  _c3653
  _c3654
  _c3655
  _c3656
  _c3657
  _c3659
  _c3660
  _c3661
  _c3662
  _c3663
  _c3664
  _c3665
  _c3666
  _c3669
  _c3670
  _c3671
  _c3672
  _c3673
  _c3674
  _c3675
  _c3676
  _c3678
  _c3679
  _c3680
  _c3681
  _c3682
  _c3683
  _c3684
  _c3685
  _c3687
  _c3688
  _c3689
  _c3690
  _c3691
  _c3692
  _c3693
  _c3694
  _c3696
  _c3697
  _c3698
  _c3699
  _c3700
  _c3701
  _c3702
  _c3703
  _c3705
  _c3706
  _c3707
  _c3708
  _c3709
  _c3710
  _c3711
  _c3712
  _c3714
  _c3715
  _c3716
  _c3717
  _c3718
  _c3719
  _c3720
  _c3721
  _c3723
  _c3724
  _c3725
  _c3726
  _c3727
  _c3728
  _c3729
  _c3730
  _c3733
  _c3734
  _c3735
  _c3736
  _c3737
  _c3738
  _c3739
  _c3740
  _c3742
  _c3743
  _c3744
  _c3745
  _c3746
  _c3747
  _c3748
  _c3749
  _c3751
  _c3752
  _c3753
  _c3754
  _c3755
  _c3756
  _c3757
  _c3758
  _c3760
  _c3761
  _c3762
  _c3763
  _c3764
  _c3765
  _c3767
  _c3769
  _c3770
  _c3771
  _c3772
  _c3773
  _c3774
  _c3775
  _c3776
  _c3777
  _c3778
  _c3779
  _c3780
  _c3781
  _c3782
  _c3783
  _c3784
  _c3785
  _c3787
  _c3788
  _c3789
  _c3790
  _c3791
  _c3792
  _c3793
  _c3794
  _c3797
  _c3798
  _c3799
  _c3800
  _c3801
  _c3802
  _c3803
  _c3804
  _c3806
  _c3807
  _c3808
  _c3809
  _c3810
  _c3811
  _c3812
  _c3813
  _c3815
  _c3816
  _c3817
  _c3818
  _c3819
  _c3820
  _c3821
  _c3822
  _c3824
  _c3825
  _c3826
  _c3827
  _c3828
  _c3829
  _c3831
  _c3833
  _c3834
  _c3835
  _c3836
  _c3837
  _c3838
  _c3839
  _c3840
  _c3842
  _c3843
  _c3844
  _c3845
  _c3846
  _c3847
  _c3848
  _c3849
  _c3850
  _c3851
  _c3852
  _c3853
  _c3854
  _c3855
  _c3856
  _c3857
  _c3858
  _c3861
  _c3862
  _c3863
  _c3864
  _c3865
  _c3866
  _c3867
  _c3868
  _c3870
  _c3871
  _c3872
  _c3873
  _c3874
  _c3875
  _c3876
  _c3877
  _c3879
  _c3880
  _c3881
  _c3882
  _c3883
  _c3884
  _c3885
  _c3886
  _c3888
  _c3889
  _c3890
  _c3891
  _c3892
  _c3893
  _c3895
  _c3897
  _c3898
  _c3899
  _c3900
  _c3901
  _c3902
  _c3903
  _c3904
  _c3906
  _c3907
  _c3908
  _c3909
  _c3910
  _c3911
  _c3912
  _c3913
  _c3915
  _c3916
  _c3917
  _c3918
  _c3919
  _c3920
  _c3921
  _c3922
  _c5021
  _c5022
  _c5023
  _c5024
  _c5025
  _c5026
  _c5027
  _c5028
  _c5030
  _c5031
  _c5032
  _c5033
  _c5034
  _c5035
  _c5036
  _c5040
  _c5042
  _c5043
  _c5045
  _c5048
  _c5049
  _c5050
  _c5052
  _c5053
  _c5055
  _c5058
  _c5059
  _c5060
  _c5062
  _c5066
  _c5068
  _c5069
  _c5070
  _c5072
  _c5073
  _c5075
  _c5076
  _c5077
  _c5078
  _c5079
  _c5080
  _c5081
  _c5082
  _c5636
  _c5637
  _c5638
  _c5639
  _c5640
  _c5641
  _c5642
  _c5643
  _c5788
  _c5797
  _c5806
  _c5815
  _c5824
  _c5833
  _c5842
  _c5851
  _c5861
  _c5862
  _c5863
  _c5864
  _c5865
  _c5866
  _c5867
  _c5868
  _c5870
  _c5871
  _c5872
  _c5873
  _c5874
  _c5875
  _c5876
  _c5877
  _c5879
  _c5880
  _c5881
  _c5882
  _c5883
  _c5884
  _c5885
  _c5886
  _c5888
  _c5889
  _c5890
  _c5891
  _c5892
  _c5893
  _c5894
  _c5895
  _c5897
  _c5898
  _c5899
  _c5900
  _c5901
  _c5902
  _c5903
  _c5904
  _c5906
  _c5907
  _c5908
  _c5909
  _c5910
  _c5911
  _c5912
  _c5913
  _c5915
  _c5916
  _c5917
  _c5918
  _c5919
  _c5920
  _c5921
  _c5922
  _c6077
  _c6078
  _c6084
  _c6085
  _c6092
  _c6101
  _c6104
  _c6105
  _c6106
  _c6108
  _c6109
  _c6111
  _c6112
  _c6113
  _c6116
  _c6117
  _c6118
  _c6119
  _c6120
  _c6124
  _c6125
  _c6126
  _c6127
  _c6765
  _c73
  _c7333
  _c7334
  _c7335
  _c7336
  _c7337
  _c7338
  _c7339
  _c74
  _c75
  _c76
  _c77
  _c78
  _c79
  _c80
  _c8070
  _c8071
  _c8072
  _c8073
  _c8074
  _c8075
  _c8076
  _c8077
  _c8079
  _c8080
  _c8081
  _c8082
  _c8083
  _c8084
  _c8085
  _c8086
  _c8088
  _c8089
  _c8090
  _c8091
  _c8092
  _c8093
  _c8094
  _c8095
  _c8097
  _c8098
  _c8099
  _c8100
  _c8101
  _c8102
  _c8103
  _c8104
  _c8106
  _c8107
  _c8108
  _c8109
  _c8110
  _c8111
  _c8112
  _c8113
  _c8115
  _c8116
  _c8117
  _c8118
  _c8119
  _c8120
  _c8121
  _c8122
  _c8124
  _c8125
  _c8126
  _c8127
  _c8128
  _c8129
  _c8130
  _c8131
  _c8237
  _c8239
  _c8241
  _c8242
  _c8243
  _c8244
  _c8245
  _c8246
  _c8247
  _c8248
  _c8249
  _c8250
  _c8251
  _c8252
  _c8253
  _c8254
  _c8255
  _c8256
  _c8257
  _c8258
  _c8259
  _c8260
  _c8261
  _c8262
  _c8263
  _c8264
  _c8265
  _c8266
  _c8267 )
